; benchmark generated from python API
(set-info :status unknown)
(declare-datatypes ((RealState 0)) (((RMk1 (rval1 Real)) (RMk2 (rval2 Real)))))
 (assert
 (forall ((|v11:0| Real) )(exists ((|v10:1_st| RealState) (val!2940 Real) )(forall ((|v9:2| Real) )(exists ((|v8:3_st| RealState) (val!2941 Real) )(forall ((|v7:4| Real) )(exists ((|v6:5_st| RealState) (val!2942 Real) )(forall ((|v5:6| Real) )(exists ((|v4:7_st| RealState) (val!2943 Real) )(forall ((|v3:8| Real) )(exists ((|v2:9_st| RealState) (val!2944 Real) )(forall ((|v1:10| Real) )(exists ((|v0:11_st| RealState) (val!2945 Real) )(let ((?x255 (* 14.0 |v3:8|)))
 (let ((?x908 (+ (+ (* 10.0 |v7:4|) (* (- 15.0) |v1:10|)) (* (- 9.0) (rval2 |v0:11_st|)))))
 (let ((?x845 (- 2.0)))
 (let ((?x2309 (+ (+ (+ (* 17.0 (rval2 |v10:1_st|)) (* (- 4.0) |v5:6|)) (* 7.0 |v5:6|)) (* (- 4.0) |v7:4|))))
 (let ((?x2084 (- 1.0)))
 (let ((?x2073 (+ (+ (* (- 19.0) |v11:0|) (* (- 8.0) |v1:10|)) (* (- 11.0) |v11:0|))))
 (let ((?x2056 (+ (+ (* (- 4.0) (rval2 |v6:5_st|)) (* (- 12.0) |v11:0|)) (* (- 11.0) (rval2 |v10:1_st|)))))
 (let (($x2714 (and (<= (+ ?x2056 (* 2.0 |v9:2|)) 17.0) (<= (+ ?x2073 (* (- 14.0) (rval2 |v2:9_st|))) ?x2084))))
 (let ((?x1307 (* 14.0 |v11:0|)))
 (let ((?x791 (+ (+ (+ (* 13.0 (rval2 |v4:7_st|)) (* 5.0 |v3:8|)) (* (- 12.0) |v3:8|)) ?x1307)))
 (let ((?x1737 (- 18.0)))
 (let ((?x1801 (+ (+ (+ |v1:10| (* (- 4.0) |v3:8|)) (* (- 14.0) (rval2 |v0:11_st|))) (* 4.0 |v1:10|))))
 (let ((?x2279 (+ (+ (+ (* 7.0 |v5:6|) (* (- 14.0) |v5:6|)) (* 13.0 |v11:0|)) (* ?x1737 (rval2 |v2:9_st|)))))
 (let ((?x3156 (+ (+ (+ (* ?x2084 (rval2 |v0:11_st|)) (* 6.0 (rval2 |v2:9_st|))) (rval2 |v0:11_st|)) (* (- 17.0) (rval2 |v10:1_st|)))))
 (let (($x1576 (or (and (<= ?x3156 5.0) (<= ?x2279 13.0)) (or (<= ?x1801 ?x1737) (<= ?x791 ?x2084)))))
 (let ((?x1741 (- 10.0)))
 (let ((?x411 (+ (+ (+ (* 7.0 (rval2 |v6:5_st|)) (rval2 |v8:3_st|)) (* 13.0 |v7:4|)) (* ?x1741 |v5:6|))))
 (let ((?x1498 (- 15.0)))
 (let ((?x2176 (- 16.0)))
 (let ((?x3179 (* ?x2176 |v1:10|)))
 (let ((?x2956 (+ (+ (+ (* 11.0 |v1:10|) (* 15.0 |v11:0|)) (* 12.0 (rval2 |v10:1_st|))) ?x3179)))
 (let ((?x656 (- 11.0)))
 (let ((?x1540 (* ?x656 |v7:4|)))
 (let ((?x2216 (+ (+ (+ (* 17.0 |v11:0|) (* 9.0 |v3:8|)) (* 4.0 (rval2 |v8:3_st|))) ?x1540)))
 (let ((?x864 (- 14.0)))
 (let ((?x1898 (rval2 |v4:7_st|)))
 (let ((?x1116 (* 10.0 ?x1898)))
 (let ((?x608 (rval2 |v0:11_st|)))
 (let ((?x1867 (* 16.0 ?x608)))
 (let (($x747 (<= (+ (+ (+ (* 5.0 |v7:4|) (* 18.0 (rval2 |v6:5_st|))) ?x1867) ?x1116) ?x864)))
 (let ((?x2978 (rval2 |v8:3_st|)))
 (let ((?x2120 (* 18.0 ?x2978)))
 (let ((?x302 (+ (+ (+ (* (- 3.0) (rval2 |v2:9_st|)) (* 7.0 ?x608)) (* ?x864 |v5:6|)) ?x2120)))
 (let (($x2178 (and (and (or (<= ?x302 11.0) $x747) (or (<= ?x2216 ?x845) (<= ?x2956 ?x1498))) (<= ?x411 ?x1741))))
 (let (($x1632 (or $x2178 (and $x1576 (or $x2714 (and (<= ?x2309 ?x845) (<= (+ ?x908 ?x255) 6.0)))))))
 (let ((?x3003 (* 16.0 ?x2978)))
 (let (($x2898 (<= (+ (+ (+ (* 0.0 (rval2 |v2:9_st|)) ?x1116) (* 20.0 |v1:10|)) ?x3003) 3.0)))
 (let ((?x2939 (- 9.0)))
 (let ((?x2878 (+ (+ (+ (* (- 20.0) |v9:2|) (* ?x845 |v5:6|)) (* 12.0 (rval2 |v2:9_st|))) (* ?x1498 |v5:6|))))
 (let (($x1184 (<= (+ (+ (+ (* 18.0 |v5:6|) (* 7.0 |v7:4|)) (* 8.0 |v1:10|)) |v1:10|) 1.0)))
 (let ((?x2656 (* ?x1741 |v3:8|)))
 (let (($x1283 (<= (+ (+ (+ ?x3003 (* ?x2176 (rval2 |v2:9_st|))) (* 4.0 |v11:0|)) ?x2656) ?x845)))
 (let ((?x2685 (+ (+ (+ (* 14.0 |v5:6|) (* 12.0 |v1:10|)) (* 12.0 |v9:2|)) (* ?x1737 ?x1898))))
 (let ((?x2650 (- 7.0)))
 (let ((?x2115 (- 8.0)))
 (let ((?x1387 (* ?x2115 |v1:10|)))
 (let ((?x2578 (+ (+ (+ (* ?x2115 ?x608) (* (- 3.0) |v11:0|)) (* ?x845 (rval2 |v2:9_st|))) ?x1387)))
 (let ((?x3152 (+ (+ (+ (* (- 17.0) ?x608) (* (- 13.0) |v1:10|)) (* 8.0 |v3:8|)) (* 9.0 ?x1898))))
 (let ((?x2412 (- 3.0)))
 (let ((?x2078 (* ?x2412 |v7:4|)))
 (let (($x1388 (<= (+ (+ (+ (* 13.0 |v11:0|) (* ?x864 |v5:6|)) (* (- 13.0) |v9:2|)) ?x2078) 7.0)))
 (let ((?x1775 (+ (+ (+ (* 18.0 |v1:10|) (* 11.0 ?x608)) (* (- 6.0) (rval2 |v6:5_st|))) (* ?x2650 |v3:8|))))
 (let ((?x2754 (+ (+ (+ (* ?x845 |v1:10|) (* 20.0 |v3:8|)) (* ?x2650 (rval2 |v10:1_st|))) (* 19.0 ?x1898))))
 (let ((?x2940 (+ (+ (+ (* 5.0 (rval2 |v2:9_st|)) (* 3.0 ?x2978)) (* (- 19.0) |v11:0|)) (* 8.0 |v5:6|))))
 (let (($x2820 (or (and (or (<= ?x2940 0.0) (<= ?x2754 ?x845)) (or (<= ?x1775 ?x1737) $x1388)) (or (<= ?x3152 12.0) (and (<= ?x2578 ?x2650) (<= ?x2685 ?x656))))))
 (let (($x676 (and (and $x2820 (and (and (or $x1283 $x1184) (<= ?x2878 ?x2939)) $x2898)) $x1632)))
 (let (($x244 (<= (+ (+ (+ ?x1387 (* 15.0 ?x2978)) (* 6.0 ?x2978)) (* 11.0 ?x608)) 14.0)))
 (let (($x1423 (not (= |v0:11_st| (RMk1 val!2945)))))
 (let (($x937 (not (= |v2:9_st| (RMk1 val!2944)))))
 (let (($x1277 (not (= |v4:7_st| (RMk1 val!2943)))))
 (let (($x1151 (not (= |v6:5_st| (RMk1 val!2942)))))
 (let (($x1011 (not (= |v8:3_st| (RMk1 val!2941)))))
 (let (($x439 (not (= |v10:1_st| (RMk1 val!2940)))))
 (and $x439 $x1011 $x1151 $x1277 $x937 $x1423 (or $x244 $x676))))))))))))))))))))))))))))))))))))))))))))))))))))))))))))))))))
 )
 )
 )
 )
 )
 )
 )
 )
 )
 )
 )
 )
(check-sat)
